Function: get_partitions took 0.00019359588623046875 seconds
Function: map_flows_partitions took 0.000217437744140625 seconds
Building model with:
15 devices, 64 partitions and 320 flows
Using license file /home/anup/gurobi.lic
Academic license - for non-commercial use only
Function: MIP.add_frac_mem_var took 0.0053691864013671875 seconds
Function: MIP.add_coverage_constraints took 0.005740642547607422 seconds
Function: MIP.add_accuracy_constraints took 0.015418767929077148 seconds
Function: MIP.add_capacity_constraints took 0.0056951045989990234 seconds
Changed value of parameter TimeLimit to 120.0
   Prev: inf  Min: 0.0  Max: inf  Default: inf
--------------------------------------------------
Starting model update
Model update took: 0.00101470947265625 s
--------------------------------------------------
Starting model optimize
Gurobi Optimizer version 9.0.0 build v9.0.0rc2 (linux64)
Optimize a model with 1155 rows, 1640 columns and 5154 nonzeros
Model fingerprint: 0x769cd1f4
Model has 1 general constraint
Variable types: 1640 continuous, 0 integer (0 binary)
Coefficient statistics:
  Matrix range     [1e+00, 5e+01]
  Objective range  [1e+00, 1e+00]
  Bounds range     [1e+00, 3e+04]
  RHS range        [7e-01, 1e+00]

---------------------------------------------------------------------------
Multi-objectives: starting optimization with 2 objectives ... 
---------------------------------------------------------------------------

Multi-objectives: applying initial presolve ...
---------------------------------------------------------------------------

Presolve removed 836 rows and 798 columns
Presolve time: 0.00s
Presolved: 319 rows and 842 columns
---------------------------------------------------------------------------

Multi-objectives: optimize objective 1 (max_mem) ...
---------------------------------------------------------------------------

Presolve time: 0.00s
Presolved: 319 rows, 842 columns, 2619 nonzeros
Presolved model has 15 SOS constraint(s)
Variable types: 827 continuous, 15 integer (15 binary)

Root relaxation: objective 3.126562e+02, 474 iterations, 0.01 seconds

    Nodes    |    Current Node    |     Objective Bounds      |     Work
 Expl Unexpl |  Obj  Depth IntInf | Incumbent    BestBd   Gap | It/Node Time

*    0     0               0     312.6562500  312.65625  0.00%     -    0s

Explored 0 nodes (474 simplex iterations) in 0.02 seconds
Thread count was 8 (of 8 available processors)

Solution count 1: 312.656 

Optimal solution found (tolerance 1.00e-04)
Best objective 3.126562500000e+02, best bound 3.126562500000e+02, gap 0.0000%
---------------------------------------------------------------------------

Multi-objectives: optimize objective 2 (tot_mem) ...
---------------------------------------------------------------------------


Loaded user MIP start with objective 4689.84

Presolve added 7 rows and 0 columns
Presolve removed 0 rows and 7 columns
Presolve time: 0.00s
Presolved: 327 rows, 835 columns, 2635 nonzeros
Variable types: 820 continuous, 15 integer (15 binary)

Root relaxation: cutoff, 544 iterations, 0.01 seconds

    Nodes    |    Current Node    |     Objective Bounds      |     Work
 Expl Unexpl |  Obj  Depth IntInf | Incumbent    BestBd   Gap | It/Node Time

     0     0     cutoff    0      4689.84375 4689.84375  0.00%     -    0s

Explored 0 nodes (544 simplex iterations) in 0.03 seconds
Thread count was 8 (of 8 available processors)

Solution count 1: 4689.84 

Optimal solution found (tolerance 1.00e-04)
Best objective 4.689843750000e+03, best bound 4.689843750000e+03, gap 0.0000%

---------------------------------------------------------------------------
Multi-objectives: solved in 0.03 seconds, solution count 1

Model optimize took: 0.03016209602355957 seconds
--------------------------------------------------

Solution quality statistics for model Univmon :
  Maximum violation:
    Bound       : 0.00000000e+00
    Constraint  : 1.06581410e-14 (rows_tot_CPU2)
    Integrality : 0.00000000e+00

Sketch (0) (cm: eps0: 0.000625, del0: 0.05, min_mem: 16.9921875)
Par: 1, Rows: 3
(0.000,9)    (0.000,1)    (0.400,8)    (0.100,0)    (0.000,14)    (0.200,6)    (0.500,13)    (0.000,5)    (0.000,12)    (0.000,4)    (0.000,11)    (0.300,3)    (0.000,10)    
Total frac: 1.500

Sketch (1) (cm: eps0: 0.000625, del0: 0.05, min_mem: 16.9921875)
Par: 1, Rows: 3
(0.000,14)    (0.700,5)    (0.000,6)    (0.000,11)    (0.000,12)    (0.800,3)    (0.200,4)    (0.000,9)    (0.000,10)    (0.000,1)    (0.000,8)    (1.000,7)    (0.000,13)    
Total frac: 2.700

Sketch (2) (cm: eps0: 0.000625, del0: 0.05, min_mem: 16.9921875)
Par: 1, Rows: 3
(0.300,3)    (0.000,8)    (0.000,14)    (0.000,0)    (0.000,6)    (0.600,13)    (0.000,5)    (0.000,7)    (0.000,10)    (0.000,12)    (0.400,2)    (0.000,9)    (0.000,4)    (0.300,11)    
Total frac: 1.600

Sketch (3) (cm: eps0: 0.000625, del0: 0.05, min_mem: 16.9921875)
Par: 1, Rows: 3
(0.000,9)    (0.000,10)    (0.000,12)    (0.020,3)    (0.220,4)    (0.000,13)    (0.000,8)    (0.000,14)    (0.480,5)    (0.780,0)    
Total frac: 1.500

Sketch (4) (cm: eps0: 0.000625, del0: 0.05, min_mem: 16.9921875)
Par: 1, Rows: 3
(0.000,11)    (0.000,3)    (0.000,13)    (0.000,9)    (0.000,5)    (0.387,12)    (0.000,1)    (0.513,8)    (0.000,4)    (0.000,0)    (0.000,10)    (0.000,14)    (0.900,6)    
Total frac: 1.800

Sketch (5) (cm: eps0: 0.000625, del0: 0.05, min_mem: 16.9921875)
Par: 1, Rows: 3
(0.000,8)    (0.000,0)    (0.000,10)    (0.000,14)    (0.800,3)    (0.000,13)    (0.000,9)    (0.000,5)    (0.100,1)    (0.000,12)    
Total frac: 0.900

Sketch (6) (cm: eps0: 0.000625, del0: 0.05, min_mem: 16.9921875)
Par: 1, Rows: 3
(0.000,13)    (0.523,9)    (0.000,11)    (0.000,1)    (0.000,3)    (0.000,10)    (0.000,12)    (0.223,8)    (0.000,14)    (0.323,4)    (0.153,0)    (0.477,6)    
Total frac: 1.700

Sketch (7) (cm: eps0: 0.000625, del0: 0.05, min_mem: 16.9921875)
Par: 1, Rows: 3
(0.000,10)    (0.000,12)    (0.900,8)    (0.000,14)    (0.100,4)    (0.000,0)    (0.000,13)    (0.000,9)    (0.000,11)    (0.000,1)    (0.000,7)    (0.000,3)    
Total frac: 1.000

Sketch (8) (cm: eps0: 0.000625, del0: 0.05, min_mem: 16.9921875)
Par: 1, Rows: 3
(0.000,14)    (0.000,12)    (0.000,11)    (0.000,5)    (0.000,2)    (0.000,1)    (0.000,10)    (0.100,0)    (0.000,9)    (0.900,8)    (0.000,6)    (0.000,13)    
Total frac: 1.000

Sketch (9) (cm: eps0: 0.000625, del0: 0.05, min_mem: 16.9921875)
Par: 1, Rows: 3
(0.000,10)    (0.000,7)    (0.000,13)    (0.000,6)    (0.000,11)    (0.800,4)    
Total frac: 0.800

Sketch (10) (cm: eps0: 0.000625, del0: 0.05, min_mem: 16.9921875)
Par: 1, Rows: 3
(0.000,12)    (0.000,2)    (0.000,11)    (0.900,1)    (0.000,10)    (0.000,9)    (0.000,4)    (0.000,3)    (0.000,0)    (0.000,6)    (0.000,13)    (0.000,8)    (1.000,14)    (0.000,7)    
Total frac: 1.900

Sketch (11) (cm: eps0: 0.000625, del0: 0.05, min_mem: 16.9921875)
Par: 1, Rows: 3
(0.000,3)    (0.000,4)    (0.000,13)    (0.000,7)    (0.000,8)    (0.000,14)    (0.000,5)    (0.000,11)    (0.100,1)    (0.800,12)    (0.000,2)    (0.000,9)    (0.000,10)    
Total frac: 0.900

Sketch (12) (cm: eps0: 0.000625, del0: 0.05, min_mem: 16.9921875)
Par: 1, Rows: 3
(0.000,8)    (0.057,4)    (0.000,10)    (0.643,6)    (0.000,14)    (0.000,11)    (0.000,13)    (0.000,12)    (0.000,3)    (0.000,1)    (0.900,0)    (0.000,9)    
Total frac: 1.600

Sketch (13) (cm: eps0: 0.000625, del0: 0.05, min_mem: 16.9921875)
Par: 1, Rows: 3
(0.000,13)    (0.000,3)    (0.200,1)    (0.000,12)    (0.800,9)    (0.000,5)    (0.000,0)    (0.000,8)    (0.800,4)    (0.000,2)    (0.000,10)    (0.000,11)    (0.000,7)    (0.000,14)    
Total frac: 1.800

Sketch (14) (cm: eps0: 0.000625, del0: 0.05, min_mem: 16.9921875)
Par: 1, Rows: 3
(0.000,10)    (0.000,0)    (0.000,6)    (0.000,8)    (0.000,14)    (0.000,13)    (0.900,11)    (0.100,1)    (0.000,7)    (0.000,9)    (0.000,5)    (0.000,12)    (0.000,3)    
Total frac: 1.000

Sketch (15) (cm: eps0: 0.000625, del0: 0.05, min_mem: 16.9921875)
Par: 1, Rows: 3
(0.000,11)    (0.000,12)    (0.000,0)    (0.800,6)    (0.000,8)    (0.000,14)    (0.000,13)    
Total frac: 0.800

Sketch (16) (cm: eps0: 0.000625, del0: 0.05, min_mem: 16.9921875)
Par: 1, Rows: 3
(0.487,7)    (0.000,2)    (0.413,6)    (0.000,13)    (0.000,12)    (0.213,4)    (0.000,11)    (0.000,3)    (0.000,14)    (0.000,10)    (0.487,9)    
Total frac: 1.600

Sketch (17) (cm: eps0: 0.000625, del0: 0.05, min_mem: 16.9921875)
Par: 1, Rows: 3
(0.900,0)    (0.000,12)    (0.900,3)    (0.100,9)    (0.000,14)    (0.000,8)    (0.000,1)    (0.000,13)    (0.000,2)    (0.000,6)    (0.000,11)    
Total frac: 1.900

Sketch (18) (cm: eps0: 0.000625, del0: 0.05, min_mem: 16.9921875)
Par: 1, Rows: 3
(0.000,8)    (0.000,2)    (0.400,6)    (0.000,1)    (0.000,13)    (0.400,7)    (0.500,14)    (0.000,10)    (0.000,0)    (0.000,12)    (0.100,9)    (0.320,4)    (0.000,11)    (0.080,3)    
Total frac: 1.800

Sketch (19) (cm: eps0: 0.000625, del0: 0.05, min_mem: 16.9921875)
Par: 1, Rows: 3
(0.000,9)    (0.000,14)    (0.000,10)    (0.200,11)    (0.200,0)    (0.600,12)    (0.000,3)    (0.000,4)    (0.000,1)    (0.000,13)    (0.000,8)    (0.000,2)    (0.700,5)    (0.000,6)    (0.000,7)    
Total frac: 1.700

Sketch (20) (cm: eps0: 0.000625, del0: 0.05, min_mem: 16.9921875)
Par: 1, Rows: 3
(0.700,13)    (0.000,5)    (0.000,12)    (0.000,8)    (0.000,4)    (0.100,10)    (0.000,6)    (0.100,1)    (0.000,0)    (0.000,11)    (0.000,7)    (0.000,14)    
Total frac: 0.900

Sketch (21) (cm: eps0: 0.000625, del0: 0.05, min_mem: 16.9921875)
Par: 1, Rows: 3
(0.600,1)    (0.000,6)    (0.000,11)    (0.000,7)    (0.000,0)    (0.697,3)    (0.000,13)    (0.103,2)    (0.000,9)    (0.600,5)    (0.303,14)    (0.000,12)    (0.097,8)    (0.300,4)    (0.000,10)    
Total frac: 2.700

Sketch (22) (cm: eps0: 0.000625, del0: 0.05, min_mem: 16.9921875)
Par: 1, Rows: 3
(0.000,11)    (0.000,12)    (0.000,8)    (0.700,6)    (0.000,1)    (0.000,14)    (0.000,13)    
Total frac: 0.700

Sketch (23) (cm: eps0: 0.000625, del0: 0.05, min_mem: 16.9921875)
Par: 1, Rows: 3
(0.000,13)    (0.700,2)    (0.000,9)    (1.000,5)    (0.000,14)    (0.000,11)    (0.000,7)    (0.700,0)    (0.000,3)    (0.000,10)    (0.000,12)    (0.000,1)    (0.000,8)    (0.000,4)    
Total frac: 2.400

Sketch (24) (cm: eps0: 0.000625, del0: 0.05, min_mem: 16.9921875)
Par: 1, Rows: 3
(0.000,5)    (0.000,4)    (0.100,3)    (0.000,14)    (0.000,10)    (0.000,9)    (0.200,8)    (0.000,7)    (0.000,6)    (0.000,1)    (0.000,13)    (0.000,0)    (0.700,12)    (0.000,11)    
Total frac: 1.000

Sketch (25) (cm: eps0: 0.000625, del0: 0.05, min_mem: 16.9921875)
Par: 1, Rows: 3
(0.000,7)    (0.000,8)    (0.517,1)    (0.000,13)    (0.200,6)    (0.000,11)    (0.000,12)    (0.800,5)    (0.183,3)    (0.000,9)    (0.000,10)    
Total frac: 1.700

Sketch (26) (cm: eps0: 0.000625, del0: 0.05, min_mem: 16.9921875)
Par: 1, Rows: 3
(0.000,11)    (0.130,14)    (0.000,10)    (0.770,9)    (0.100,4)    (0.000,3)    (0.000,2)    (0.000,13)    (0.000,7)    (0.000,5)    (0.000,12)    
Total frac: 1.000

Sketch (27) (cm: eps0: 0.000625, del0: 0.05, min_mem: 16.9921875)
Par: 1, Rows: 3
(0.000,6)    (0.000,7)    (0.000,8)    (0.000,5)    (0.000,11)    (0.000,0)    (0.000,12)    (0.200,9)    (0.000,14)    (0.100,10)    (0.000,3)    (0.000,4)    (0.700,13)    
Total frac: 1.000

Sketch (28) (cm: eps0: 0.000625, del0: 0.05, min_mem: 16.9921875)
Par: 1, Rows: 3
(0.000,6)    (0.000,1)    (0.000,11)    (0.000,7)    (0.530,2)    (0.530,13)    (0.000,12)    (0.000,3)    (0.000,14)    (0.470,9)    (0.000,5)    (0.000,8)    (0.000,4)    (0.370,10)    
Total frac: 1.900

Sketch (29) (cm: eps0: 0.000625, del0: 0.05, min_mem: 16.9921875)
Par: 1, Rows: 3
(0.000,12)    (0.000,9)    (0.000,5)    (0.000,8)    (0.800,1)    (0.000,10)    (0.000,11)    (0.900,7)    (0.000,0)    (0.000,13)    (1.000,2)    (0.000,3)    
Total frac: 2.700

Sketch (30) (cm: eps0: 0.000625, del0: 0.05, min_mem: 16.9921875)
Par: 1, Rows: 3
(0.000,13)    (0.000,0)    (0.000,11)    (0.000,14)    (0.000,9)    (0.000,12)    (0.000,3)    (0.000,10)    (0.000,6)    (0.100,1)    (0.900,8)    (0.000,4)    
Total frac: 1.000

Sketch (31) (cm: eps0: 0.000625, del0: 0.05, min_mem: 16.9921875)
Par: 1, Rows: 3
(0.000,5)    (0.000,14)    (0.200,12)    (0.000,1)    (0.000,10)    (0.000,6)    (0.000,8)    (0.000,4)    (0.100,13)    (0.500,2)    (0.700,11)    (0.000,7)    (0.000,0)    (0.000,9)    
Total frac: 1.500

Sketch (32) (cm: eps0: 0.000625, del0: 0.05, min_mem: 16.9921875)
Par: 1, Rows: 3
(0.000,13)    (0.100,6)    (0.000,12)    (0.100,5)    (0.683,11)    (0.000,4)    (0.017,10)    (0.783,9)    (0.000,2)    (0.000,8)    (0.117,1)    (0.000,0)    (0.000,7)    (0.000,14)    
Total frac: 1.800

Sketch (33) (cm: eps0: 0.000625, del0: 0.05, min_mem: 16.9921875)
Par: 1, Rows: 3
(0.700,1)    (0.000,8)    (0.000,0)    (0.400,7)    (0.000,13)    (0.300,14)    (0.000,11)    (0.000,12)    (0.100,3)    (0.000,4)    (0.000,9)    (0.000,10)    
Total frac: 1.500

Sketch (34) (cm: eps0: 0.000625, del0: 0.05, min_mem: 16.9921875)
Par: 1, Rows: 3
(1.000,5)    (0.000,10)    (0.000,12)    (0.000,11)    (0.000,8)    (0.000,14)    (0.000,13)    (0.000,0)    (0.000,6)    
Total frac: 1.000

Sketch (35) (cm: eps0: 0.000625, del0: 0.05, min_mem: 16.9921875)
Par: 1, Rows: 3
(0.000,4)    (0.000,13)    (0.000,8)    (0.000,14)    (0.000,5)    (0.000,0)    (0.000,6)    (0.000,7)    (0.000,9)    (0.000,10)    (0.900,11)    (0.000,12)    (0.000,1)    (1.000,2)    
Total frac: 1.900

Sketch (36) (cm: eps0: 0.000625, del0: 0.05, min_mem: 16.9921875)
Par: 1, Rows: 3
(0.000,4)    (0.500,10)    (0.000,0)    (0.000,2)    (0.000,14)    (0.000,6)    (0.053,11)    (0.247,7)    (0.000,13)    (0.153,3)    (0.000,9)    (0.547,12)    (0.200,8)    (0.200,5)    (0.000,1)    
Total frac: 1.900

Sketch (37) (cm: eps0: 0.000625, del0: 0.05, min_mem: 16.9921875)
Par: 1, Rows: 3
(0.000,13)    (0.000,3)    (0.000,9)    (0.000,5)    (0.100,1)    (0.000,12)    (0.000,8)    (0.000,4)    (0.900,10)    (0.000,0)    (0.000,2)    (0.000,14)    (0.000,6)    (0.000,11)    
Total frac: 1.000

Sketch (38) (cm: eps0: 0.000625, del0: 0.05, min_mem: 16.9921875)
Par: 1, Rows: 3
(0.000,8)    (0.900,2)    (0.000,14)    (0.000,4)    (0.000,13)    (0.000,9)    (0.100,11)    (0.053,5)    (0.000,1)    (0.000,7)    (0.847,10)    (0.000,12)    
Total frac: 1.900

Sketch (39) (cm: eps0: 0.000625, del0: 0.05, min_mem: 16.9921875)
Par: 1, Rows: 3
(0.000,9)    (0.000,11)    (0.000,5)    (0.000,1)    (0.000,7)    (0.000,3)    (0.000,10)    (0.000,12)    (0.000,8)    (0.100,2)    (0.900,14)    (0.000,4)    (0.000,0)    (0.000,13)    
Total frac: 1.000

Sketch (40) (cm: eps0: 0.000625, del0: 0.05, min_mem: 16.9921875)
Par: 1, Rows: 3
(0.000,1)    (0.000,9)    (0.000,0)    (0.000,8)    (0.000,7)    (0.000,13)    (0.100,6)    (0.000,12)    (0.000,14)    (0.800,11)    (0.000,5)    (0.000,4)    (0.000,2)    (0.000,10)    
Total frac: 0.900

Sketch (41) (cm: eps0: 0.000625, del0: 0.05, min_mem: 16.9921875)
Par: 1, Rows: 3
(0.000,6)    (0.000,11)    (0.000,12)    (0.200,14)    (0.000,5)    (1.000,3)    (0.000,1)    (0.000,4)    (0.000,2)    (0.000,9)    (0.000,10)    (0.000,0)    (0.000,8)    (0.000,7)    (0.800,13)    
Total frac: 2.000

Sketch (42) (cm: eps0: 0.000625, del0: 0.05, min_mem: 16.9921875)
Par: 1, Rows: 3
(0.000,4)    (0.000,3)    (0.000,13)    (0.200,6)    (0.000,14)    (0.000,7)    (0.000,12)    (0.700,11)    (0.000,10)    (0.000,9)    
Total frac: 0.900

Sketch (43) (cm: eps0: 0.000625, del0: 0.05, min_mem: 16.9921875)
Par: 1, Rows: 3
(0.100,14)    (0.300,5)    (0.000,11)    (0.000,12)    (0.000,1)    (0.000,9)    (0.500,10)    (0.000,3)    (0.100,4)    (0.000,13)    (0.000,0)    (0.000,6)    (0.000,8)    (0.900,7)    
Total frac: 1.900

Sketch (44) (cm: eps0: 0.000625, del0: 0.05, min_mem: 16.9921875)
Par: 1, Rows: 3
(0.000,7)    (0.000,13)    (0.600,12)    (0.000,3)    (0.000,1)    (0.000,9)    (0.000,0)    (0.200,8)    (0.000,5)    (0.100,4)    (0.000,2)    (0.000,10)    (0.700,6)    (0.100,14)    (0.000,11)    
Total frac: 1.700

Sketch (45) (cm: eps0: 0.000625, del0: 0.05, min_mem: 16.9921875)
Par: 1, Rows: 3
(0.100,4)    (0.000,2)    (0.000,10)    (0.000,6)    (0.000,11)    (0.000,7)    (0.100,14)    (0.800,13)    (0.000,3)    (0.000,12)    (0.000,9)    
Total frac: 1.000

Sketch (46) (cm: eps0: 0.000625, del0: 0.05, min_mem: 16.9921875)
Par: 1, Rows: 3
(0.000,11)    (0.000,1)    (0.000,9)    (0.200,5)    (0.000,12)    (0.700,2)    (0.000,3)    (0.700,10)    (0.000,0)    (0.000,6)    (0.000,8)    (0.000,14)    (0.000,4)    (0.000,13)    
Total frac: 1.600

Sketch (47) (cm: eps0: 0.000625, del0: 0.05, min_mem: 16.9921875)
Par: 1, Rows: 3
(0.000,10)    (0.000,0)    (0.000,8)    (0.700,14)    (0.000,13)    (0.000,11)    (0.200,7)    (0.000,9)    (0.000,5)    (0.000,3)    (0.000,12)    
Total frac: 0.900

Sketch (48) (cm: eps0: 0.000625, del0: 0.05, min_mem: 16.9921875)
Par: 1, Rows: 3
(0.000,10)    (0.000,3)    (0.000,14)    (0.000,9)    (0.000,8)    (0.000,13)    (0.100,1)    (0.000,12)    (0.000,5)    (0.900,0)    
Total frac: 1.000

Sketch (49) (cm: eps0: 0.000625, del0: 0.05, min_mem: 16.9921875)
Par: 1, Rows: 3
(0.600,7)    (0.000,13)    (0.000,1)    (0.000,2)    (0.000,5)    (0.000,11)    (0.000,12)    (0.100,3)    (0.000,4)    (0.700,9)    (0.200,10)    (0.000,14)    (0.000,8)    
Total frac: 1.600

Sketch (50) (cm: eps0: 0.000625, del0: 0.05, min_mem: 16.9921875)
Par: 1, Rows: 3
(0.700,12)    (0.000,14)    (0.100,9)    (0.000,0)    (0.000,11)    (0.500,4)    (0.000,3)    (0.000,8)    (0.000,2)    (0.100,13)    (0.000,6)    (0.000,1)    (0.000,5)    (0.100,7)    (0.000,10)    
Total frac: 1.500

Sketch (51) (cm: eps0: 0.000625, del0: 0.05, min_mem: 16.9921875)
Par: 1, Rows: 3
(0.400,13)    (0.500,8)    (0.000,1)    (0.100,2)    (0.000,5)    (0.200,6)    (0.000,7)    (0.400,9)    (0.000,10)    (0.000,11)    (0.000,12)    (0.000,14)    (0.000,0)    (0.000,3)    (0.400,4)    
Total frac: 2.000

Sketch (52) (cm: eps0: 0.000625, del0: 0.05, min_mem: 16.9921875)
Par: 1, Rows: 3
(0.000,6)    (0.400,1)    (0.300,0)    (0.200,11)    (0.000,7)    (0.000,2)    (0.600,13)    (0.000,3)    (0.000,14)    (0.000,9)    (0.000,12)    (0.000,8)    (0.000,5)    (0.000,4)    (0.100,10)    
Total frac: 1.600

Sketch (53) (cm: eps0: 0.000625, del0: 0.05, min_mem: 16.9921875)
Par: 1, Rows: 3
(0.000,5)    (0.000,14)    (0.000,12)    (0.000,8)    (0.000,4)    (0.000,10)    (0.000,11)    (0.900,7)    (0.000,0)    (0.000,13)    
Total frac: 0.900

Sketch (54) (cm: eps0: 0.000625, del0: 0.05, min_mem: 16.9921875)
Par: 1, Rows: 3
(0.100,6)    (0.800,1)    (0.000,2)    (0.100,13)    (0.000,14)    (0.000,9)    (0.000,0)    (0.000,11)    (0.000,5)    (0.000,7)    (0.000,3)    (0.700,10)    (0.000,12)    (0.000,8)    (0.000,4)    
Total frac: 1.700

Sketch (55) (cm: eps0: 0.000625, del0: 0.05, min_mem: 16.9921875)
Par: 1, Rows: 3
(0.100,0)    (0.000,3)    (0.000,10)    (0.600,12)    (0.200,8)    (0.000,1)    (0.000,4)    (0.000,6)    (0.000,13)    (0.000,9)    (0.000,11)    (0.000,5)    (0.100,14)    
Total frac: 1.000

Sketch (56) (cm: eps0: 0.000625, del0: 0.05, min_mem: 16.9921875)
Par: 1, Rows: 3
(0.000,7)    (0.000,13)    (0.000,6)    (0.000,1)    (0.000,12)    (0.100,0)    (0.000,11)    (0.000,5)    (0.700,4)    (0.000,10)    (0.000,3)    (0.000,14)    (0.000,9)    (0.900,8)    
Total frac: 1.700

Sketch (57) (cm: eps0: 0.000625, del0: 0.05, min_mem: 16.9921875)
Par: 1, Rows: 3
(0.000,5)    (0.000,3)    (0.600,4)    (0.700,9)    (0.200,10)    (0.000,14)    (0.000,8)    (0.000,7)    (0.000,13)    (0.000,1)    (0.100,2)    (0.000,6)    (0.000,11)    (0.000,12)    (0.000,0)    
Total frac: 1.600

Sketch (58) (cm: eps0: 0.000625, del0: 0.05, min_mem: 16.9921875)
Par: 1, Rows: 3
(0.203,13)    (0.000,6)    (0.000,7)    (0.000,5)    (0.597,11)    (0.000,10)    (0.200,4)    
Total frac: 1.000

Sketch (59) (cm: eps0: 0.000625, del0: 0.05, min_mem: 16.9921875)
Par: 1, Rows: 3
(0.000,12)    (0.000,0)    (0.000,9)    (0.900,10)    (0.000,14)    (0.000,4)    (0.000,13)    (0.100,1)    (0.000,2)    (0.000,6)    (0.000,8)    (0.000,5)    (0.000,11)    
Total frac: 1.000

Sketch (60) (cm: eps0: 0.000625, del0: 0.05, min_mem: 16.9921875)
Par: 1, Rows: 3
(0.900,14)    (0.000,9)    (0.000,8)    (0.000,5)    (0.000,4)    (0.000,10)    (0.000,6)    (0.100,1)    (0.000,0)    (0.000,11)    (0.000,7)    (0.000,2)    (0.000,13)    (0.000,12)    
Total frac: 1.000

Sketch (61) (cm: eps0: 0.000625, del0: 0.05, min_mem: 16.9921875)
Par: 1, Rows: 3
(0.000,10)    (0.000,6)    (0.000,11)    (0.900,0)    (0.000,13)    (0.600,3)    (0.100,12)    (0.000,9)    (0.000,14)    (0.000,8)    (0.000,4)    (0.000,1)    
Total frac: 1.600

Sketch (62) (cm: eps0: 0.000625, del0: 0.05, min_mem: 16.9921875)
Par: 1, Rows: 3
(0.000,9)    (0.000,5)    (0.000,12)    (0.000,3)    (0.000,10)    (0.200,1)    (0.000,8)    (0.000,4)    (0.000,13)    (0.000,0)    (0.000,11)    (0.000,7)    (0.800,14)    
Total frac: 1.000

Sketch (63) (cm: eps0: 0.000625, del0: 0.05, min_mem: 16.9921875)
Par: 1, Rows: 3
(0.000,8)    (0.000,4)    (0.000,13)    (0.000,2)    (0.000,11)    (0.000,7)    (0.000,0)    (0.000,9)    (0.000,14)    (0.000,3)    (0.900,12)    (0.000,1)    (0.000,10)    (0.000,6)    
Total frac: 0.900

Device (0) CPU1:
Rows total: 18.4
Mem total: 312.65625

Device (1) CPU2:
Rows total: 18.4
Mem total: 312.65625

Device (2) CPU3:
Rows total: 18.4
Mem total: 312.65625

Device (3) CPU4:
Rows total: 18.4
Mem total: 312.65625

Device (4) CPU5:
Rows total: 18.4
Mem total: 312.65625

Device (5) CPU6:
Rows total: 18.4
Mem total: 312.65625

Device (6) CPU7:
Rows total: 18.4
Mem total: 312.65625

Device (7) CPU8:
Rows total: 18.4
Mem total: 312.65625

Device (8) tor_P41:
Rows total: 18.4
Mem total: 312.65625

Device (9) tor_P42:
Rows total: 18.4
Mem total: 312.65625

Device (10) tor_P43:
Rows total: 18.4
Mem total: 312.65625

Device (11) tor_P44:
Rows total: 18.4
Mem total: 312.65625

Device (12) l1_P41:
Rows total: 18.4
Mem total: 312.65625

Device (13) l1_P42:
Rows total: 18.4
Mem total: 312.65625

Device (14) l2_P4:
Rows total: 18.4
Mem total: 312.65625
--------------------------------------------------
Infeasible placement
Function: MIP.solve took 0.10049057006835938 seconds
Function: solve took 0.10233688354492188 seconds
